benchmarks_CP/INST_36x36/30/inst36x36_30_57.dzn
S=6;
start=[|
-1,	-1,	8,	19,	-1,	-1,	-1,	-1,	-1,	22,	-1,	-1,	-1,	11,	26,	27,	-1,	13,	-1,	32,	15,	-1,	-1,	-1,	-1,	-1,	6,	-1,	9,	4,	-1,	25,	-1,	-1,	30,	-1|
-1,	-1,	-1,	-1,	-1,	-1,	33,	-1,	8,	-1,	-1,	-1,	-1,	-1,	-1,	-1,	-1,	-1,	-1,	27,	-1,	36,	-1,	-1,	25,	16,	10,	-1,	2,	-1,	-1,	-1,	-1,	-1,	-1,	-1|
-1,	23,	34,	-1,	-1,	-1,	-1,	-1,	-1,	25,	-1,	24,	16,	-1,	-1,	-1,	-1,	-1,	-1,	-1,	28,	-1,	-1,	-1,	-1,	-1,	-1,	-1,	-1,	-1,	-1,	15,	-1,	-1,	7,	-1|
-1,	33,	-1,	1,	-1,	-1,	-1,	-1,	-1,	14,	-1,	-1,	-1,	8,	-1,	-1,	-1,	-1,	11,	25,	4,	-1,	23,	-1,	21,	-1,	-1,	-1,	-1,	-1,	-1,	28,	-1,	-1,	-1,	-1|
-1,	-1,	16,	12,	-1,	25,	36,	-1,	27,	-1,	-1,	-1,	-1,	10,	-1,	30,	-1,	9,	-1,	-1,	-1,	19,	-1,	24,	-1,	34,	-1,	-1,	-1,	15,	-1,	-1,	-1,	-1,	21,	8|
-1,	-1,	5,	-1,	24,	-1,	11,	-1,	-1,	-1,	32,	3,	-1,	-1,	23,	-1,	-1,	-1,	17,	-1,	6,	-1,	1,	-1,	-1,	-1,	-1,	-1,	-1,	29,	33,	-1,	-1,	-1,	-1,	-1|
-1,	-1,	-1,	-1,	26,	-1,	-1,	-1,	21,	-1,	15,	-1,	23,	3,	-1,	-1,	-1,	-1,	-1,	-1,	-1,	30,	-1,	5,	-1,	10,	-1,	-1,	-1,	-1,	-1,	-1,	-1,	24,	2,	20|
35,	17,	15,	23,	-1,	-1,	-1,	11,	-1,	-1,	-1,	-1,	-1,	-1,	-1,	-1,	-1,	-1,	-1,	14,	-1,	-1,	9,	27,	-1,	-1,	-1,	-1,	30,	-1,	-1,	-1,	31,	7,	-1,	-1|
-1,	-1,	-1,	-1,	21,	-1,	-1,	2,	-1,	-1,	-1,	-1,	-1,	32,	-1,	20,	-1,	-1,	35,	-1,	7,	-1,	33,	-1,	22,	-1,	-1,	-1,	-1,	-1,	-1,	6,	-1,	-1,	-1,	-1|
2,	-1,	-1,	-1,	16,	-1,	-1,	22,	-1,	-1,	-1,	-1,	-1,	34,	-1,	-1,	36,	-1,	-1,	31,	-1,	4,	-1,	12,	-1,	-1,	21,	3,	-1,	-1,	14,	1,	18,	-1,	-1,	-1|
10,	-1,	-1,	8,	-1,	-1,	14,	25,	3,	27,	-1,	31,	-1,	18,	-1,	24,	15,	-1,	34,	-1,	-1,	-1,	-1,	-1,	-1,	-1,	-1,	-1,	-1,	5,	-1,	-1,	-1,	-1,	-1,	16|
-1,	6,	-1,	-1,	20,	-1,	-1,	-1,	29,	26,	-1,	-1,	-1,	5,	1,	-1,	-1,	-1,	-1,	36,	-1,	-1,	-1,	-1,	-1,	15,	-1,	-1,	-1,	17,	4,	-1,	-1,	-1,	-1,	12|
-1,	-1,	-1,	2,	-1,	-1,	-1,	15,	-1,	-1,	-1,	22,	-1,	-1,	-1,	-1,	-1,	-1,	23,	-1,	5,	-1,	27,	-1,	8,	-1,	-1,	-1,	-1,	-1,	-1,	-1,	-1,	16,	-1,	-1|
-1,	-1,	-1,	-1,	-1,	-1,	-1,	-1,	-1,	-1,	-1,	17,	-1,	28,	-1,	-1,	19,	-1,	9,	-1,	-1,	-1,	-1,	-1,	27,	-1,	-1,	-1,	-1,	-1,	-1,	35,	-1,	-1,	-1,	32|
33,	-1,	-1,	35,	-1,	-1,	-1,	-1,	-1,	5,	-1,	9,	-1,	21,	-1,	10,	16,	-1,	8,	-1,	-1,	34,	-1,	-1,	-1,	17,	15,	36,	-1,	-1,	-1,	29,	-1,	-1,	14,	28|
-1,	12,	-1,	27,	3,	-1,	-1,	8,	-1,	21,	-1,	-1,	-1,	-1,	-1,	-1,	-1,	-1,	-1,	-1,	30,	-1,	-1,	-1,	-1,	-1,	-1,	22,	-1,	32,	-1,	-1,	-1,	-1,	-1,	10|
-1,	-1,	-1,	15,	34,	-1,	19,	-1,	-1,	-1,	-1,	-1,	-1,	-1,	9,	8,	-1,	-1,	36,	-1,	-1,	7,	-1,	-1,	24,	-1,	26,	-1,	16,	-1,	-1,	-1,	-1,	-1,	-1,	-1|
-1,	-1,	26,	16,	-1,	-1,	10,	27,	-1,	-1,	-1,	32,	36,	-1,	34,	-1,	-1,	-1,	-1,	-1,	31,	-1,	-1,	15,	-1,	-1,	30,	7,	-1,	-1,	8,	-1,	20,	-1,	13,	-1|
-1,	-1,	19,	3,	14,	26,	-1,	-1,	33,	-1,	-1,	-1,	-1,	6,	-1,	-1,	-1,	-1,	-1,	-1,	29,	-1,	-1,	-1,	7,	-1,	-1,	-1,	-1,	-1,	31,	12,	-1,	-1,	-1,	-1|
24,	-1,	-1,	11,	-1,	-1,	-1,	-1,	-1,	-1,	-1,	-1,	8,	35,	3,	32,	-1,	30,	-1,	-1,	-1,	-1,	17,	-1,	-1,	26,	-1,	-1,	34,	-1,	-1,	18,	-1,	-1,	-1,	21|
8,	36,	33,	-1,	-1,	-1,	23,	-1,	-1,	-1,	-1,	-1,	-1,	-1,	-1,	-1,	-1,	28,	-1,	4,	11,	12,	-1,	-1,	-1,	9,	-1,	-1,	-1,	-1,	-1,	-1,	-1,	-1,	15,	-1|
5,	-1,	18,	-1,	-1,	-1,	-1,	-1,	-1,	-1,	-1,	-1,	-1,	-1,	24,	25,	-1,	-1,	1,	-1,	-1,	-1,	19,	-1,	-1,	36,	14,	-1,	-1,	-1,	23,	-1,	-1,	-1,	-1,	35|
17,	30,	-1,	21,	-1,	-1,	29,	20,	-1,	18,	5,	15,	-1,	9,	-1,	31,	-1,	-1,	14,	-1,	-1,	25,	-1,	-1,	-1,	-1,	-1,	-1,	-1,	-1,	-1,	-1,	-1,	-1,	34,	-1|
16,	35,	27,	-1,	29,	-1,	-1,	26,	-1,	30,	9,	-1,	-1,	-1,	-1,	-1,	-1,	-1,	2,	-1,	10,	-1,	-1,	6,	-1,	-1,	-1,	-1,	-1,	-1,	-1,	-1,	-1,	-1,	5,	-1|
7,	-1,	-1,	34,	5,	24,	-1,	-1,	-1,	-1,	-1,	-1,	-1,	-1,	10,	-1,	-1,	33,	32,	-1,	2,	-1,	-1,	3,	16,	27,	-1,	-1,	-1,	-1,	29,	-1,	-1,	-1,	31,	-1|
3,	-1,	-1,	-1,	22,	-1,	13,	-1,	20,	-1,	-1,	-1,	7,	4,	-1,	26,	-1,	-1,	31,	11,	-1,	-1,	-1,	-1,	28,	-1,	-1,	-1,	-1,	34,	-1,	-1,	-1,	12,	-1,	17|
20,	-1,	-1,	-1,	-1,	-1,	-1,	3,	-1,	-1,	-1,	29,	-1,	-1,	-1,	-1,	-1,	-1,	-1,	9,	-1,	-1,	-1,	-1,	31,	14,	25,	-1,	-1,	-1,	-1,	-1,	-1,	2,	-1,	7|
1,	-1,	28,	13,	18,	-1,	-1,	-1,	-1,	24,	-1,	30,	-1,	-1,	-1,	9,	-1,	-1,	29,	-1,	20,	-1,	-1,	-1,	-1,	-1,	4,	-1,	-1,	-1,	-1,	-1,	5,	-1,	-1,	-1|
-1,	-1,	-1,	-1,	-1,	33,	-1,	-1,	17,	1,	-1,	35,	-1,	-1,	13,	-1,	18,	-1,	22,	-1,	-1,	-1,	-1,	-1,	-1,	-1,	-1,	9,	-1,	-1,	-1,	-1,	-1,	-1,	11,	19|
30,	-1,	-1,	32,	-1,	-1,	-1,	14,	-1,	-1,	12,	26,	-1,	-1,	-1,	6,	-1,	23,	-1,	-1,	-1,	13,	-1,	-1,	15,	-1,	-1,	-1,	36,	-1,	-1,	-1,	-1,	-1,	3,	9|
28,	-1,	-1,	-1,	36,	-1,	-1,	-1,	24,	9,	-1,	-1,	-1,	15,	-1,	-1,	-1,	-1,	4,	-1,	-1,	-1,	-1,	1,	-1,	-1,	-1,	-1,	26,	-1,	-1,	-1,	-1,	-1,	-1,	-1|
15,	-1,	-1,	-1,	-1,	-1,	7,	31,	-1,	29,	-1,	18,	-1,	27,	-1,	23,	-1,	-1,	-1,	-1,	-1,	16,	-1,	-1,	-1,	6,	36,	-1,	-1,	-1,	-1,	-1,	-1,	-1,	-1,	-1|
-1,	-1,	23,	-1,	-1,	9,	-1,	-1,	-1,	-1,	-1,	-1,	32,	-1,	-1,	-1,	-1,	-1,	6,	3,	25,	-1,	-1,	29,	-1,	21,	-1,	-1,	-1,	7,	-1,	-1,	-1,	-1,	-1,	-1|
29,	-1,	-1,	10,	1,	-1,	-1,	-1,	15,	-1,	6,	25,	-1,	-1,	-1,	-1,	-1,	-1,	-1,	-1,	-1,	18,	-1,	30,	-1,	-1,	-1,	-1,	22,	-1,	-1,	-1,	-1,	-1,	-1,	-1|
-1,	-1,	30,	-1,	-1,	-1,	-1,	-1,	-1,	-1,	-1,	-1,	-1,	-1,	-1,	2,	34,	35,	26,	-1,	12,	24,	10,	-1,	-1,	-1,	-1,	14,	11,	-1,	-1,	-1,	29,	-1,	-1,	-1|
18,	-1,	31,	-1,	27,	-1,	-1,	-1,	19,	11,	-1,	-1,	-1,	-1,	36,	22,	-1,	-1,	-1,	-1,	9,	-1,	-1,	7,	-1,	-1,	-1,	-1,	-1,	-1,	-1,	3,	-1,	-1,	-1,	14|];
